(set-info :smt-lib-version 2.6)
(set-logic QF_UF)
(set-info :source |
Generated by: David Deharbe, CLEARSY
Generated on: 2019-09-09
Generator: bxml;pog;pog2smt (Atelier B)
Application: Event-B
Target solver: CVC4, Z3
|)
(set-info :license "https://creativecommons.org/licenses/by-nc/4.0/")
(set-info :category "industrial")
(set-info :status unknown)
; Prelude
(declare-sort U 0)
(declare-fun |*i| (U U) U)
(declare-fun |+i| (U U) U)
(declare-fun |-i| (U U) U)
(declare-fun idiv (U U) U)
(declare-fun |*r| (U U) U)
(declare-fun |+r| (U U) U)
(declare-fun |-r| (U U) U)
(declare-fun rdiv (U U) U)
(declare-fun modulo (U U) U)
(declare-fun |<i| (U U) Bool)
(declare-fun |<=i| (U U) Bool)
(declare-fun |>i| (U U) Bool)
(declare-fun |>=i| (U U) Bool)
(declare-fun |<r| (U U) Bool)
(declare-fun |<=r| (U U) Bool)
(declare-fun |>r| (U U) Bool)
(declare-fun |>=r| (U U) Bool)
(declare-fun iuminus (U) U)
(declare-fun ruminus (U) U)
(declare-fun TRUE () U)
(declare-fun FALSE () U)
(assert (not (= TRUE FALSE)))
(declare-fun empty () U)
(declare-fun bool (Bool) U)
(declare-fun BOOL () U)
(declare-fun INT () U)
(declare-fun INTEGER () U)
(declare-fun NAT () U)
(declare-fun NAT1 () U)
(declare-fun NATURAL () U)
(declare-fun NATURAL1 () U)
(declare-fun FLOAT () U)
(declare-fun MaxInt () U)
(declare-fun MinInt () U)
(declare-fun |STRING| () U)
(declare-fun REAL () U)
(declare-fun set_prod (U U) U)
(declare-fun set_diff (U U) U)
(declare-fun mapplet (U U) U)
(declare-fun |**i| (U U) U)
(declare-fun |**r| (U U) U)
(declare-fun |+->| (U U) U)
(declare-fun |+->>| (U U) U)
(declare-fun |-->| (U U) U)
(declare-fun |-->>| (U U) U)
(declare-fun |<->| (U U) U)
(declare-fun |>+>| (U U) U)
(declare-fun |>->| (U U) U)
(declare-fun |>+>>| (U U) U)
(declare-fun |>->>| (U U) U)
(declare-fun |->| (U U) U)
(declare-fun interval (U U) U)
(declare-fun composition (U U) U)
(declare-fun binary_inter (U U) U)
(declare-fun restriction_head (U U) U)
(declare-fun semicolon (U U) U)
(declare-fun |<+| (U U) U)
(declare-fun |<-| (U U) U)
(declare-fun domain_subtraction (U U) U)
(declare-fun domain_restriction (U U) U)
(declare-fun |><| (U U) U)
(declare-fun parallel_product (U U) U)
(declare-fun binary_union (U U) U)
(declare-fun restriction_tail (U U) U)
(declare-fun concatenate (U U) U)
(declare-fun range_restriction (U U) U)
(declare-fun range_subtraction (U U) U)
(declare-fun image (U U) U)
(declare-fun apply (U U) U)
(declare-fun prj1 (U U) U)
(declare-fun prj2 (U U) U)
(declare-fun iterate (U U) U)
(declare-fun |const| (U U) U)
(declare-fun rank (U U) U)
(declare-fun father (U U) U)
(declare-fun subtree (U U) U)
(declare-fun arity (U U) U)
(declare-fun |+f| (U U) U)
(declare-fun |-f| (U U) U)
(declare-fun |*f| (U U) U)
(declare-fun |fdiv| (U U) U)
(declare-fun tbin (U U U) U)
(declare-fun son (U U U) U)
(declare-fun mem (U U) Bool)
(declare-fun subset (U U) Bool)
(declare-fun strict_subset (U U) Bool)
(declare-fun |<=f| (U U) Bool)
(declare-fun |<f| (U U) Bool)
(declare-fun |>=f| (U U) Bool)
(declare-fun |>f| (U U) Bool)
(declare-fun imax (U) U)
(declare-fun imin (U) U)
(declare-fun rmax (U) U)
(declare-fun rmin (U) U)
(declare-fun card (U) U)
(declare-fun dom (U) U)
(declare-fun ran (U) U)
(declare-fun POW (U) U)
(declare-fun POW1 (U) U)
(declare-fun FIN (U) U)
(declare-fun FIN1 (U) U)
(declare-fun union (U) U)
(declare-fun inter (U) U)
(declare-fun seq (U) U)
(declare-fun seq1 (U) U)
(declare-fun iseq (U) U)
(declare-fun iseq1 (U) U)
(declare-fun inverse (U) U)
(declare-fun size (U) U)
(declare-fun perm (U) U)
(declare-fun first (U) U)
(declare-fun last (U) U)
(declare-fun id (U) U)
(declare-fun closure (U) U)
(declare-fun closure1 (U) U)
(declare-fun tail (U) U)
(declare-fun front (U) U)
(declare-fun reverse (U) U)
(declare-fun rev (U) U)
(declare-fun conc (U) U)
(declare-fun succ (U) U)
(declare-fun pred (U) U)
(declare-fun rel (U) U)
(declare-fun fnc (U) U)
(declare-fun real (U) U)
(declare-fun floor (U) U)
(declare-fun ceiling (U) U)
(declare-fun tree (U) U)
(declare-fun btree (U) U)
(declare-fun top (U) U)
(declare-fun sons (U) U)
(declare-fun prefix (U) U)
(declare-fun postfix (U) U)
(declare-fun sizet (U) U)
(declare-fun mirror (U) U)
(declare-fun left (U) U)
(declare-fun right (U) U)
(declare-fun infix (U) U)
(declare-fun ubin (U) U)
(declare-fun SEQ (U) U)
(declare-fun SET (U) U)
; Opaque formulas
(declare-fun e0 () U)
(declare-fun e21 () U)
(declare-fun e22 () U)
(declare-fun g_s0_1 () U)
(declare-fun g_s1_2 () U)
(declare-fun g_s10_11 () U)
(declare-fun g_s11_12 () U)
(declare-fun g_s12_13 () U)
(declare-fun g_s13_14 () U)
(declare-fun g_s14_15 () U)
(declare-fun g_s15_16 () U)
(declare-fun g_s16_17 () U)
(declare-fun g_s17_18 () U)
(declare-fun g_s18_19 () U)
(declare-fun g_s19_20 () U)
(declare-fun g_s2_3 () U)
(declare-fun g_s20_23 () U)
(declare-fun g_s21_24 () U)
(declare-fun g_s22_25 () U)
(declare-fun g_s23$1_26 () U)
(declare-fun g_s24$1_27 () U)
(declare-fun g_s3_4 () U)
(declare-fun g_s32_34 () U)
(declare-fun g_s32$1_35 () U)
(declare-fun g_s33_36 () U)
(declare-fun g_s34_37 () U)
(declare-fun g_s38_38 () U)
(declare-fun g_s38$1_39 () U)
(declare-fun g_s39_40 () U)
(declare-fun g_s4_5 () U)
(declare-fun g_s40_41 () U)
(declare-fun g_s42_42 () U)
(declare-fun g_s42$1_43 () U)
(declare-fun g_s5_6 () U)
(declare-fun g_s6_7 () U)
(declare-fun g_s7_8 () U)
(declare-fun g_s8_9 () U)
(declare-fun g_s9_10 () U)
(declare-fun e31 () U)
(declare-fun e30 () U)
(declare-fun e29 () U)
(declare-fun e28 () U)
(declare-fun e32 () U)
(declare-fun e33 () U)
; Defines
(define-fun |def_B definitions| () Bool (and (= NAT (interval e0 MaxInt)) (= INT (interval MinInt MaxInt))))
(define-fun |def_ctx| () Bool (and (= g_s0_1 INT) (= g_s1_2 NAT) (= g_s2_3 NAT1) (subset g_s2_3 g_s1_2) (subset g_s1_2 g_s0_1) (= g_s3_4 INT) (= g_s4_5 NAT) (subset g_s4_5 g_s3_4) (mem g_s5_6 g_s0_1) (mem g_s5_6 g_s1_2) (not (mem g_s5_6 g_s2_3)) (mem g_s6_7 g_s0_1) (not (mem g_s6_7 g_s1_2)) (mem g_s7_8 g_s3_4) (mem g_s7_8 g_s4_5) (mem g_s8_9 g_s3_4) (not (mem g_s8_9 g_s4_5)) (= g_s9_10 INT) (= g_s10_11 INT) (= g_s11_12 NATURAL) (= g_s12_13 NATURAL) (mem g_s13_14 NAT1) (= g_s13_14 MaxInt) (mem g_s14_15 NAT1) (mem g_s15_16 NAT1) (= g_s15_16 MaxInt) (mem g_s16_17 NAT1) (mem g_s17_18 NAT1) (mem g_s18_19 NAT1) (mem g_s19_20 NAT1) (= g_s18_19 e21) (= g_s19_20 e22)))
(define-fun |def_seext| () Bool true)
(define-fun |def_mchcst| () Bool true)
(define-fun |def_aprp| () Bool (and (mem g_s20_23 (|-->| (set_prod g_s1_2 g_s9_10) g_s1_2)) (mem g_s21_24 (|<->| g_s1_2 g_s1_2)) (mem g_s22_25 (|<->| g_s1_2 g_s1_2))))
(define-fun |def_abs| () Bool true)
(define-fun |def_inv| () Bool (and (mem g_s23$1_26 BOOL) (mem g_s24$1_27 g_s0_1)))
(define-fun |def_ass| () Bool true)
(define-fun |def_sets| () Bool true)
(define-fun |def_imlprp| () Bool (and (= g_s20_23 (|<+| (|<+| (|<+| e31 e30) e29) e28)) (= g_s21_24 e32) (= g_s22_25 e33)))
(define-fun |def_imprp| () Bool true)
(define-fun |def_imext| () Bool true)
; PO group 0 
(push 1)
(assert |def_B definitions|)
(assert |def_ctx|)
(assert |def_imprp|)
; PO 1 in group 0
(push 1)
(assert (not (mem e32 (|<->| g_s1_2 g_s1_2))))
(check-sat)
(pop 1)
; PO 2 in group 0
(push 1)
(assert (not (mem e33 (|<->| g_s1_2 g_s1_2))))
(set-info :status unknown)
(check-sat)
(pop 1)
; PO 3 in group 0
(push 1)
(assert (not (mem (|<+| (|<+| (|<+| e31 e30) e29) e28) (|-->| (set_prod g_s1_2 g_s9_10) g_s1_2))))
(set-info :status unknown)
(check-sat)
(pop 1)
(pop 1)
; PO group 1 
(push 1)
(assert |def_B definitions|)
(assert |def_ctx|)
(assert |def_mchcst|)
(assert |def_aprp|)
(assert |def_imlprp|)
(assert |def_imprp|)
(assert |def_imext|)
(assert |def_seext|)
(assert |def_abs|)
(assert |def_inv|)
(assert |def_ass|)
(assert (= g_s32$1_35 g_s32_34))
(define-fun lh_1 () Bool (mem g_s33_36 g_s0_1))
(define-fun lh_2 () Bool (mem g_s33_36 g_s1_2))
(define-fun lh_3 () Bool (mem g_s34_37 g_s9_10))
(define-fun lh_4 () Bool (|>=i| g_s34_37 e0))
(define-fun lh_5 () Bool (|>=i| (|-i| g_s13_14 g_s33_36) g_s34_37))
; PO 1 in group 1
(push 1)
(assert (not (=> (and lh_1 lh_2 lh_3 lh_4) (mem (|-i| g_s13_14 g_s33_36) INT))))
(set-info :status unknown)
(check-sat)
(pop 1)
; PO 2 in group 1
(push 1)
(assert (not (=> (and lh_1 lh_2 lh_3 lh_4 lh_5) (mem (apply g_s20_23 (mapplet g_s33_36 g_s34_37)) g_s0_1))))
(set-info :status unknown)
(check-sat)
(pop 1)
; PO 3 in group 1
(push 1)
(assert (not (=> (and lh_1 lh_2 lh_3 lh_4 lh_5) (mem (|+i| g_s33_36 g_s34_37) INT))))
(set-info :status unknown)
(check-sat)
(pop 1)
; PO 4 in group 1
(push 1)
(assert (not (=> (and lh_1 lh_2 lh_3 lh_4 lh_5) (mem (|+i| g_s33_36 g_s34_37) g_s0_1))))
(set-info :status unknown)
(check-sat)
(pop 1)
; PO 5 in group 1
(push 1)
(assert (not (=> (and lh_1 lh_2 lh_3 lh_4 lh_5) (= (|+i| g_s33_36 g_s34_37) (apply g_s20_23 (mapplet g_s33_36 g_s34_37))))))
(set-info :status unknown)
(check-sat)
(pop 1)
(pop 1)
; PO group 2 
(push 1)
(assert |def_B definitions|)
(assert |def_ctx|)
(assert |def_mchcst|)
(assert |def_aprp|)
(assert |def_imlprp|)
(assert |def_imprp|)
(assert |def_imext|)
(assert |def_seext|)
(assert |def_abs|)
(assert |def_inv|)
(assert |def_ass|)
(assert (= g_s38$1_39 g_s38_38))
(define-fun lh_1 () Bool (mem g_s39_40 g_s0_1))
(define-fun lh_2 () Bool (mem g_s39_40 g_s1_2))
(define-fun lh_3 () Bool (mem g_s40_41 g_s0_1))
(define-fun lh_4 () Bool (mem g_s40_41 g_s1_2))
(define-fun lh_5 () Bool (|<i| g_s39_40 g_s40_41))
; PO 1 in group 2
(push 1)
(assert (not (=> (and lh_1 lh_2 lh_3 lh_4 lh_5) (mem (|-i| g_s40_41 g_s39_40) INT))))
(set-info :status unknown)
(check-sat)
(pop 1)
; PO 2 in group 2
(push 1)
(assert (not (=> (and lh_1 lh_2 lh_3 lh_4 lh_5) (= (bool (|<=i| (|-i| g_s40_41 g_s39_40) g_s17_18)) (bool (mem (mapplet g_s39_40 g_s40_41) g_s21_24))))))
(set-info :status unknown)
(check-sat)
(pop 1)
(pop 1)
; PO group 3 
(push 1)
(assert |def_B definitions|)
(assert |def_ctx|)
(assert |def_mchcst|)
(assert |def_aprp|)
(assert |def_imlprp|)
(assert |def_imprp|)
(assert |def_imext|)
(assert |def_seext|)
(assert |def_abs|)
(assert |def_inv|)
(assert |def_ass|)
(assert (= g_s42$1_43 g_s42_42))
(define-fun lh_1 () Bool (mem g_s39_40 g_s0_1))
(define-fun lh_2 () Bool (mem g_s39_40 g_s1_2))
(define-fun lh_3 () Bool (mem g_s40_41 g_s0_1))
(define-fun lh_4 () Bool (mem g_s40_41 g_s1_2))
(define-fun lh_5 () Bool (|<=i| g_s39_40 g_s40_41))
; PO 1 in group 3
(push 1)
(assert (not (=> (and lh_1 lh_2 lh_3 lh_4 lh_5) (mem (|-i| g_s40_41 g_s39_40) INT))))
(set-info :status unknown)
(check-sat)
(pop 1)
; PO 2 in group 3
(push 1)
(assert (not (=> (and lh_1 lh_2 lh_3 lh_4 lh_5) (= (bool (|<=i| (|-i| g_s40_41 g_s39_40) g_s17_18)) (bool (mem (mapplet g_s39_40 g_s40_41) g_s22_25))))))
(set-info :status unknown)
(check-sat)
(pop 1)
(pop 1)
(exit)